Academic license - for non-commercial use only - expires 2022-01-02
Gurobi Optimizer version 9.1.2 build v9.1.2rc0 (linux64)
Thread count: 4 physical cores, 4 logical processors, using up to 1 threads
Optimize a model with 1162442 rows, 490702 columns and 2392084 nonzeros
Model fingerprint: 0x9267db27
Model has 2294084 quadratic constraints
Variable types: 702 continuous, 490000 integer (490000 binary)
Coefficient statistics:
  Matrix range     [1e+00, 1e+00]
  QMatrix range    [1e+00, 1e+00]
  QLMatrix range   [1e+00, 2e+00]
  Objective range  [1e+00, 1e+00]
  Bounds range     [0e+00, 0e+00]
  RHS range        [1e+00, 1e+04]
  QRHS range       [1e+00, 1e+04]
Presolve removed 1160342 rows and 462000 columns (presolve time = 7s) ...
Presolve removed 1160362 rows and 462040 columns (presolve time = 10s) ...
Presolve removed 1160362 rows and 462040 columns (presolve time = 53s) ...
Presolve removed 1132344 rows and 448022 columns
Presolve time: 52.61s
Presolved: 1216023 rows, 126563 columns, 4814054 nonzeros
Presolved model has 55922 SOS constraint(s)
Variable types: 70623 continuous, 55940 integer (55940 binary)
Found heuristic solution: objective 6325.0000000
Found heuristic solution: objective 6078.0000000

Root simplex log...

Iteration    Objective       Primal Inf.    Dual Inf.      Time
       0    0.0000000e+00   2.000000e+00   0.000000e+00    310s
      42    0.0000000e+00   0.000000e+00   0.000000e+00    310s
      42    0.0000000e+00   0.000000e+00   0.000000e+00    311s

Root relaxation: objective 0.000000e+00, 42 iterations, 1.39 seconds

    Nodes    |    Current Node    |     Objective Bounds      |     Work
 Expl Unexpl |  Obj  Depth IntInf | Incumbent    BestBd   Gap | It/Node Time

     0     0    0.00000    0    4 6078.00000    0.00000   100%     -  310s
     0     0    0.00000    0    4 6078.00000    0.00000   100%     -  631s
     0     2    0.00000    0    4 6078.00000    0.00000   100%     -  667s
     1     3    0.00000    1    7 6078.00000    0.00000   100%   205  676s
     5     7 4950.00000    3    5 6078.00000    0.00000   100%  75.6  680s
     9    11 3027.00000    5   11 6078.00000    0.00000   100%  50.2  685s
    12    14 2345.00000    6   13 6078.00000    0.00000   100%  39.2  690s
    18    20    0.00000    9   16 6078.00000    0.00000   100%  27.1  696s
    22    24    0.00000   11   12 6078.00000    0.00000   100%  23.2  700s
    26    26    0.00000   13    7 6078.00000    0.00000   100%  20.0  706s
    30    30    0.00000   15   14 6078.00000    0.00000   100%  17.6  711s
    35    33    0.00000   18   14 6078.00000    0.00000   100%  15.7  715s
    41    35 infeasible   21      6078.00000    0.00000   100%  13.7  720s
    46    38    0.00000   23   19 6078.00000    0.00000   100%  13.0  725s
    51    43    0.00000   26   13 6078.00000    0.00000   100%  12.2  730s
    57    45 3548.00000   29   15 6078.00000    0.00000   100%  11.2  735s
    62    48    0.00000   31   11 6078.00000    0.00000   100%  10.5  740s
    68    52 infeasible   34      6078.00000    0.00000   100%   9.7  745s
    75    57    0.00000   38   17 6078.00000    0.00000   100%   9.0  750s
    79    61    0.00000   40   16 6078.00000    0.00000   100%   8.6  755s
    85    67 3122.00000   43   12 6078.00000    0.00000   100%   8.1  760s
    91    73    0.00000   46    7 6078.00000    0.00000   100%   7.7  765s
    98    78 3692.00000   49   13 6078.00000    0.00000   100%   7.3  770s
   105    85 3692.00000   53    7 6078.00000    0.00000   100%   7.0  775s
   110    90 3692.00000   55   22 6078.00000    0.00000   100%   7.7  780s
   116    96 3692.00000   58    8 6078.00000    0.00000   100%   9.0  785s
   125   103 3692.00000   62    5 6078.00000    0.00000   100%   8.5  791s
H  131    56                    2916.0000000    0.00000   100%   8.2  826s
   136    51  136.00000    2    2 2916.00000    0.00000   100%   7.9  843s
   137    52  136.00000    3   12 2916.00000    0.00000   100%   8.9  845s
   144    55  136.00000    6   15 2916.00000    0.00000   100%   8.9  850s
   150    57 infeasible    9      2916.00000    0.00000   100%   9.7  855s
   156    59  136.00000   12   24 2916.00000    0.00000   100%   9.6  860s
   164    61  136.00000   16   11 2916.00000    0.00000   100%  10.2  867s
   168    65  136.00000   18    8 2916.00000    0.00000   100%  10.1  871s
   173    66  136.00000   21   11 2916.00000    0.00000   100%  10.0  877s
   176    65  136.00000   22   15 2916.00000    0.00000   100%  10.1  880s
   182    69 1763.00000   25   10 2916.00000    0.00000   100%  10.0  885s
   189    74  136.00000   29    3 2916.00000    0.00000   100%   9.8  890s
   196    73  136.00000   32    5 2916.00000    0.00000   100%   9.6  895s
   204    75  136.00000   36    3 2916.00000    0.00000   100%   9.4  901s
   210    75 infeasible   39      2916.00000    0.00000   100%   9.2  905s
   217    78  136.00000   43   10 2916.00000    0.00000   100%   9.1  910s
   226    81  412.00000   45   15 2916.00000    0.00000   100%   9.1  916s
   231    84 infeasible   48      2916.00000    0.00000   100%   9.1  920s
   238    91  412.00000   51    9 2916.00000    0.00000   100%   9.0  925s
   246    93  412.00000   54   16 2916.00000    0.00000   100%   8.8  932s
   250    95  412.00000   55   11 2916.00000    0.00000   100%   8.7  935s
   256    99  412.00000   58   19 2916.00000    0.00000   100%   8.6  942s
   260   101  412.00000   60   17 2916.00000    0.00000   100%   8.5  945s
   269   108  412.00000   64   20 2916.00000    0.00000   100%   8.3  950s
   276   109  412.00000   67   22 2916.00000    0.00000   100%   8.2  955s
   283   110 infeasible   71      2916.00000    0.00000   100%   8.1  960s
   291   114 infeasible   74      2916.00000    0.00000   100%   8.2  965s
   299   118  412.00000   76   30 2916.00000    0.00000   100%   8.2  970s
   302   121  412.00000   78   19 2916.00000    0.00000   100%   8.3  975s
   309   124  412.00000   81   20 2916.00000    0.00000   100%   8.4  981s
   312   127 1104.00000   83   26 2916.00000    0.00000   100%   8.3  998s
   314   129  412.00000   84   19 2916.00000    0.00000   100%   8.3 1000s
   322   131  412.00000   87   15 2916.00000    0.00000   100%   8.3 1005s
   329   134 1941.00000   90   13 2916.00000    0.00000   100%   8.4 1010s
   334   137  412.00000   92   27 2916.00000    0.00000   100%   8.5 1017s
   338   139  412.00000   94   23 2916.00000    0.00000   100%   8.4 1020s
   346   143  412.00000   97   27 2916.00000    0.00000   100%   8.4 1025s
   351   148 2349.00000  100   28 2916.00000    0.00000   100%   8.4 1030s
   358   153 infeasible  103      2916.00000    0.00000   100%   8.2 1035s
   365   160  412.00000  107   27 2916.00000    0.00000   100%   8.2 1040s
   370   161  594.00000  109   26 2916.00000    0.00000   100%   8.1 1045s
   377   166  412.00000  113   30 2916.00000    0.00000   100%   8.0 1050s
   385   172  412.00000  116   28 2916.00000    0.00000   100%   8.0 1055s
   392   173 infeasible  119      2916.00000    0.00000   100%   7.9 1060s
H  397   128                    1981.0000000    0.00000   100%   7.8 1071s
   403   132  412.00000  122   34 1981.00000    0.00000   100%   7.7 1075s
   409   134  412.00000  125   37 1981.00000    0.00000   100%   7.7 1081s
   414   135  412.00000  128   38 1981.00000    0.00000   100%   7.7 1085s
   421   138  412.00000  131   32 1981.00000    0.00000   100%   7.6 1090s
   429   146  412.00000  135   48 1981.00000    0.00000   100%   7.5 1095s
H  436   127                    1559.0000000    0.00000   100%   7.4 1107s
   439   132  412.00000  139   52 1559.00000    0.00000   100%   7.5 1111s
   445   132 infeasible  142      1559.00000    0.00000   100%   7.4 1115s
   452   137  412.00000  146   49 1559.00000    0.00000   100%   7.4 1120s
   460   141 infeasible  150      1559.00000    0.00000   100%   7.3 1125s
   466   147  412.00000  152   49 1559.00000    0.00000   100%   7.2 1130s
   471   152  412.00000  155   57 1559.00000    0.00000   100%   7.5 1135s
   479   154  412.00000  159   51 1559.00000    0.00000   100%   7.5 1140s
   487   158  412.00000  162   52 1559.00000    0.00000   100%   7.9 1145s
   492   159  412.00000  164   52 1559.00000    0.00000   100%   7.9 1151s
   497   164  498.00000  166   54 1559.00000    0.00000   100%   7.9 1155s
   504   165  412.00000  170   61 1559.00000    0.00000   100%   7.9 1160s
   511   167  412.00000   54 27970 1559.00000    0.00000   100%   7.8 1210s
   513   168 1079.00000  105    0 1559.00000    0.00000   100%   7.8 1332s
   514   169  917.00000  159    0 1559.00000    0.00000   100%   7.7 1400s
   515   170  412.00000   63    0 1559.00000    0.00000   100%   7.7 1444s
   516   172    0.00000   10   12 1559.00000    0.00000   100%   7.9 1450s
   519   174    0.00000   11   18 1559.00000    0.00000   100%   8.0 1455s
   527   178  201.00000   15   14 1559.00000    0.00000   100%   8.0 1460s
   532   177    0.00000   17   37 1559.00000    0.00000   100%   8.2 1465s
   540   174    0.00000   21   38 1559.00000    0.00000   100%   8.1 1472s
   541   175    0.00000   22   46 1559.00000    0.00000   100%   8.2 1475s
   548   174    0.00000   25   50 1559.00000    0.00000   100%   8.3 1482s
   552   172    0.00000   27   47 1559.00000    0.00000   100%   8.3 1485s
   559   175  285.00000   31   50 1559.00000    0.00000   100%   8.3 1490s
   565   175    0.00000   34   54 1559.00000    0.00000   100%   8.3 1495s
   568   173    0.00000   35   56 1559.00000    0.00000   100%   8.2 1501s
   573   172    0.00000   38   52 1559.00000    0.00000   100%   8.2 1505s
   580   173    0.00000   41   62 1559.00000    0.00000   100%   8.1 1516s
   586   175 infeasible   44      1559.00000    0.00000   100%   8.0 1520s
   593   176    0.00000   48   72 1559.00000    0.00000   100%   8.1 1530s
   600   172    0.00000   51   68 1559.00000    0.00000   100%   8.0 1535s
   608   174    0.00000   55   70 1559.00000    0.00000   100%   7.9 1540s
   616   173    0.00000   59   70 1559.00000    0.00000   100%   7.9 1545s
   620   172    0.00000   61   69 1559.00000    0.00000   100%   7.9 1551s
   624   170    0.00000   63   63 1559.00000    0.00000   100%   7.9 1573s
   625   171    0.00000   64   66 1559.00000    0.00000   100%   7.9 1575s
   632   172    0.00000   67   67 1559.00000    0.00000   100%   7.8 1580s
   636   172    0.00000   69   71 1559.00000    0.00000   100%   7.8 1591s
   637   173    0.00000   70   73 1559.00000    0.00000   100%   7.9 1598s
   640   173    0.00000   71   75 1559.00000    0.00000   100%   7.8 1600s
   645   172    0.00000   74   75 1559.00000    0.00000   100%   7.8 1605s
   649   173    0.00000   76   77 1559.00000    0.00000   100%   7.8 1610s
   656   174    0.00000   79   83 1559.00000    0.00000   100%   7.8 1615s
   661   175    0.00000   82   79 1559.00000    0.00000   100%   7.7 1622s
   668   172    0.00000   85   66 1559.00000    0.00000   100%   7.7 1625s
   676   169    0.00000   89   70 1559.00000    0.00000   100%   7.6 1630s
   684   168    0.00000   93   75 1559.00000    0.00000   100%   7.6 1635s
   690   168 infeasible   96      1559.00000    0.00000   100%   7.5 1640s
   696   168    0.00000   99   83 1559.00000    0.00000   100%   7.5 1645s
   704   168    0.00000  103   71 1559.00000    0.00000   100%   7.4 1650s
   712   165    0.00000  107   77 1559.00000    0.00000   100%   7.4 1656s
   717   164    0.00000  110   80 1559.00000    0.00000   100%   7.3 1660s
   725   164    0.00000  114   74 1559.00000    0.00000   100%   7.3 1665s
   730   165  586.00000  116   79 1559.00000    0.00000   100%   7.3 1670s
   739   165 infeasible  121      1559.00000    0.00000   100%   7.2 1675s
   747   162 infeasible  125      1559.00000    0.00000   100%   7.1 1680s
   753   166    0.00000  128   91 1559.00000    0.00000   100%   7.1 1686s
   759   166    0.00000  130   88 1559.00000    0.00000   100%   7.1 1690s
   766   163 infeasible  134      1559.00000    0.00000   100%   7.0 1695s
   773   162 1551.00000   12   10 1559.00000    0.00000   100%   7.0 1701s
   778   165 1551.00000   14   11 1559.00000    0.00000   100%   7.1 1705s
   784   163 infeasible   17      1559.00000    0.00000   100%   7.2 1710s
